396,314
254,189
918,369
996,635
847,919
606,880
414,542
482,342
625,51
773,121
629,334
761,366
695,494
586,593
681,766
606,880
681,946
1095,471
708,321
463,564
441,406
633,441
586,593
491,780
681,766
996,635
1020,652
980,818
918,369
891,406
802,494
761,446
396,314
254,189
381,406
539,452
633,441
629,334
708,321
625,51
602,-97
802,494
947,448
1101,406
761,446
627,512
452,721
414,542
385,452
381,406
627,512
695,494
601,446
482,470
